====================================================================================================================
File name: 100_5_46_15.def
Creation date: Mon Nov 24 20:40:30 CET 2014
Website: http://imopse.ii.pwr.edu.pl/
Reference:
Myszkowski P. B., Skowronski M. E., Olech L., Oslizlo K.,
Hybrid Ant Colony Optimization in solving Multi-Skill Resource-Constrained Project Scheduling Problem,
Soft Computing, DOI: DOI 10.1007/s00500-014-1455-x
====================================================================================================================
General characteristics:
Tasks: 100
Resources: 5
Precedence relations: 46
Number of skill types: 14
====================================================================================================================
ResourceID 	 Salary 	 Skills
1	 	 	94.3	 	 Q13: 2 	  Q10: 1 	  Q2: 0 	  Q7: 1 	  Q4: 2 	  Q8: 1
2	 	 	78.0	 	 Q2: 2 	  Q12: 0 	  Q14: 2 	  Q11: 1 	  Q9: 0 	  Q1: 2
3	 	 	58.4	 	 Q2: 1 	  Q7: 2 	  Q12: 0 	  Q3: 1 	  Q8: 2 	  Q10: 0
4	 	 	64.3	 	 Q9: 0 	  Q6: 2 	  Q5: 2 	  Q14: 0 	  Q12: 0 	  Q4: 2
5	 	 	99.5	 	 Q9: 0 	  Q11: 0 	  Q12: 1 	  Q13: 0 	  Q14: 0 	  Q10: 1
====================================================================================================================
TaskID 	 Duration 	 Skill 	 Predecessor IDs
1	 	 	39	 Q14: 2
2	 	 	37	 Q6: 2
3	 	 	33	 Q7: 1
4	 	 	29	 Q12: 1
5	 	 	37	 Q2: 1
6	 	 	15	 Q2: 1	 	4
7	 	 	14	 Q13: 0
8	 	 	12	 Q14: 2
9	 	 	32	 Q14: 2
10	 	 	40	 Q2: 1
11	 	 	23	 Q10: 1
12	 	 	19	 Q11: 1
13	 	 	35	 Q8: 1
14	 	 	22	 Q8: 1
15	 	 	10	 Q13: 0
16	 	 	14	 Q7: 1
17	 	 	10	 Q11: 0
18	 	 	10	 Q10: 1	 	17
19	 	 	27	 Q6: 2
20	 	 	27	 Q11: 0	 	8
21	 	 	21	 Q8: 2
22	 	 	27	 Q6: 2
23	 	 	30	 Q11: 1
24	 	 	32	 Q10: 0
25	 	 	35	 Q12: 1
26	 	 	22	 Q8: 1
27	 	 	30	 Q11: 1	 	16
28	 	 	24	 Q14: 0	 	20
29	 	 	9	 Q10: 0
30	 	 	20	 Q8: 2
31	 	 	35	 Q5: 2
32	 	 	25	 Q6: 2
33	 	 	29	 Q1: 2
34	 	 	9	 Q2: 0
35	 	 	33	 Q11: 1	 	8
36	 	 	23	 Q9: 0
37	 	 	37	 Q13: 0
38	 	 	30	 Q9: 0
39	 	 	12	 Q2: 2
40	 	 	10	 Q7: 2
41	 	 	37	 Q11: 1
42	 	 	30	 Q8: 2
43	 	 	31	 Q7: 1
44	 	 	36	 Q10: 1
45	 	 	40	 Q4: 2	 	23	10
46	 	 	33	 Q11: 0
47	 	 	18	 Q13: 0	 	9
48	 	 	32	 Q14: 2
49	 	 	17	 Q10: 1	 	32	3
50	 	 	40	 Q12: 1	 	13
51	 	 	35	 Q2: 1	 	20	41	4
52	 	 	33	 Q6: 2
53	 	 	33	 Q11: 1	 	28
54	 	 	10	 Q2: 1
55	 	 	25	 Q2: 1
56	 	 	35	 Q12: 1
57	 	 	29	 Q14: 0	 	22
58	 	 	30	 Q10: 1	 	6	37
59	 	 	14	 Q3: 1
60	 	 	35	 Q2: 0	 	55	13
61	 	 	12	 Q9: 0
62	 	 	20	 Q2: 1
63	 	 	31	 Q9: 0
64	 	 	20	 Q13: 0	 	10
65	 	 	14	 Q9: 0
66	 	 	32	 Q12: 1
67	 	 	17	 Q7: 2	 	53
68	 	 	40	 Q8: 1
69	 	 	15	 Q7: 1
70	 	 	28	 Q13: 2
71	 	 	14	 Q7: 2	 	21
72	 	 	34	 Q10: 1	 	61
73	 	 	28	 Q8: 1
74	 	 	25	 Q14: 0
75	 	 	23	 Q7: 2
76	 	 	31	 Q8: 2	 	17	18	60
77	 	 	27	 Q14: 0	 	49
78	 	 	29	 Q9: 0	 	65
79	 	 	29	 Q8: 2	 	7
80	 	 	25	 Q13: 2	 	49
81	 	 	33	 Q4: 2
82	 	 	13	 Q4: 2	 	69	66
83	 	 	23	 Q10: 1
84	 	 	31	 Q10: 0
85	 	 	22	 Q11: 1	 	5
86	 	 	39	 Q8: 2	 	70	22
87	 	 	25	 Q7: 2	 	55	36
88	 	 	39	 Q7: 1	 	16
89	 	 	36	 Q7: 1	 	8	19
90	 	 	10	 Q1: 2	 	58	46
91	 	 	37	 Q11: 1	 	45
92	 	 	31	 Q2: 0	 	25
93	 	 	39	 Q8: 2
94	 	 	32	 Q10: 1
95	 	 	15	 Q14: 2
96	 	 	38	 Q2: 1
97	 	 	20	 Q14: 2
98	 	 	23	 Q2: 2
99	 	 	30	 Q13: 2
100	 	 	22	 Q3: 1
====================================================================================================================
